/* Objective function */
min: - 0.0054fpdi - 0.0054fpdo + 0.05apdi + 0.05apdo + 0.0002pi + 0.0002po - 0.5fsi - 0.5fso;

apdi = 0.0 hi + 0.0 li + 10.56771 ri + -0.0058 ci + -1.49717 si + 0.0 ti + 0.10786 fTempIi + 0.0062 ami + -119.18941;
asi = 0.0 hi + -0.0 li + 0.0 ri + 0.0 ci + 0.0 si + 0.0 ti + -0.0 fTempIi + 7e-05 ami + -0.00214;
aTempOi = 0.0 hi + 0.0 li + 0.303 ri + -0.04656 ci + -0.04112 si + 0.0 ti + 0.767 fTempIi + -0.0002 ami + 6.82384;
fpdi = 0.0 hi + -0.0 li + 11.25432 ri + -13.74786 ci + -0.01952 si + -0.0 ti + -0.61857 fTempIi + 9e-05 ami + 314.48022;
fsi = 0.0 hi + -0.0 li + -0.0 ri + -0.05071 ci + 0.0 si + 0.0 ti + 1e-05 fTempIi + -0.0 ami + 2.20064;
fTempOi = 0.0 hi + 0.0 li + -0.29801 ri + 0.04637 ci + 0.04037 si + 0.0 ti + 0.25571 fTempIi + -0.00018 ami + 9.53474;
pi = 0.0 hi + 0.0 li + 387.36875 ri + 3.12929 ci + -39.42567 si + 0.0 ti + -0.0 fTempIi + 0.0 ami + 2007.34821;

apdo = 0.0 ho + -0.0 lo + 12.76329 ro + 0.00787 co + -1.92128 so + -0.0 to + 0.13918 fTempIo + 0.00734 amo + -157.86269;
aso = 0.0 ho + 0.0 lo + -0.0 ro + 0.0 co + 0.0 so + 0.0 to + 0.0 fTempIo + 7e-05 amo + -0.00214;
aTempOo = 0.0 ho + -0.0 lo + -0.3138 ro + 0.05467 co + 0.05465 so + 0.0 to + 0.74653 fTempIo + 0.00022 amo + -0.4535;
fpdo = 0.0 ho + -0.0 lo + 10.98313 ro + -13.69332 co + 0.0257 so + -0.0 to + -0.62059 fTempIo + -0.0001 amo + 312.7477;
fso = 0.0 ho + 0.0 lo + -0.0 ro + -0.05071 co + 0.0 so + -0.0 to + -0.0 fTempIo + 0.0 amo + 2.20071;
fTempOo = 0.0 ho + -0.0 lo + 0.308 ro + -0.05457 co + -0.05351 so + 0.0 to + 0.26686 fTempIo + 0.0002 amo + 12.4461;
po = 0.0 ho + -0.0 lo + 337.49722 ro + 3.14 co + -36.11762 so + 0.0 to + 0.0 fTempIo + -0.0 amo + 1351.61683;

/* Variable bounds */
aTempOi > 18.6;
1 =r6i + r8i + r10i + r12i + r14i;
ri =6r6i + 8r8i + 10r10i + 12r12i + 14r14i;
1 =s30i + s40i + s50i + s60i;
si =30s30i + 40s40i + 50s50i + 60s60i;
ti = 3;
apdi > 100;
apdi < 300;
asi > 0;
asi < 3;
aTempOi > 5;
aTempOi < 25;
fpdi > 100;
fpdi < 300;
fsi > 0;
fsi < 1.25;
fTempOi > 5;
fTempOi < 25;
pi > 0;
ri > 6;
ri < 14;
ci > 17;
ci < 60;
si > 25;
si < 60;
ti > 1;
ti < 3;
fTempIi > 5;
fTempIi < 25;

/* aTempOo < 11.4; */
1 =r6o + r8o + r10o + r12o + r14o;
ro =6r6o + 8r8o + 10r10o + 12r12o + 14r14o;
1 =s25o + s30o + s40o;
so =25s25o + 30s30o + 40s40o;
to = 1;
apdo > 100;
apdo < 300;
aso > 0;
aso < 3;
aTempOo > 5;
aTempOo < 25;
fpdo > 100;
fpdo < 300;
fso > 0;
fso < 1.25;
fTempOo > 5;
fTempOo < 25;
po > 0;
ro > 6;
ro < 14;
co > 17;
co < 60;
so > 25;
so < 60;
to > 1;
to < 3;
fTempIo > 5;
fTempIo < 25;
int hi,li,si,ti,ci,ri,ami;
int ho,lo,so,to,co,ro,amo;
bin s25i,s30i,s40i,s50i,s60i,r6i,r8i,r10i,r12i,r14i;
bin s25o,s30o,s40o,s50o,s60o,r6o,r8o,r10o,r12o,r14o;
